NAME : CMT6Y
TYPE : MVRPB
DIMENSION : 51
VEHICLES : 6
CAPACITY : 16000
DISTANCE : 200
EDGE_WEIGHT_TYPE : EXACT_2D
NODE_COORD_SECTION
1 30 40
2 37 52
3 49 49
4 52 64
5 20 26
6 40 30
7 21 47
8 17 63
9 31 62
10 52 33
11 51 21
12 42 41
13 31 32
14 5 25
15 12 42
16 36 16
17 52 41
18 27 23
19 17 33
20 13 13
21 57 58
22 62 42
23 42 57
24 16 57
25 8 52
26 7 38
27 27 68
28 30 48
29 43 67
30 58 48
31 58 27
32 37 69
33 38 46
34 46 10
35 61 33
36 62 63
37 63 69
38 32 22
39 45 35
40 59 15
41 5 6
42 10 17
43 21 10
44 5 64
45 30 15
46 39 10
47 32 39
48 25 32
49 25 55
50 48 28
51 56 37
PICKUP_AND_DELIVERY_SECTION
1 0 0 10000000 10 0 0
2 0 0 10000000 10 498 202
3 0 0 10000000 10 3000 0
4 0 0 10000000 10 1300 300
5 0 0 10000000 10 692 208
6 0 0 10000000 10 1575 525
7 0 0 10000000 10 670 830
8 0 0 10000000 10 513 1387
9 0 0 10000000 10 1150 1150
10 0 0 10000000 10 698 402
11 0 0 10000000 10 206 294
12 0 0 10000000 10 1855 45
13 0 0 10000000 10 2809 91
14 0 0 10000000 10 460 1840
15 0 0 10000000 10 600 1500
16 0 0 10000000 10 444 556
17 0 0 10000000 10 1183 317
18 0 0 10000000 10 256 44
19 0 0 10000000 10 2112 1988
20 0 0 10000000 10 900 0
21 0 0 10000000 10 2752 48
22 0 0 10000000 10 542 258
23 0 0 10000000 10 589 211
24 0 0 10000000 10 449 1151
25 0 0 10000000 10 154 846
26 0 0 10000000 10 516 2284
27 0 0 10000000 10 278 422
28 0 0 10000000 10 938 563
29 0 0 10000000 10 899 501
30 0 0 10000000 10 497 103
31 0 0 10000000 10 884 1016
32 0 0 10000000 10 590 510
33 0 0 10000000 10 991 209
34 0 0 10000000 10 500 1800
35 0 0 10000000 10 1407 1193
36 0 0 10000000 10 1673 27
37 0 0 10000000 10 548 52
38 0 0 10000000 10 619 281
39 0 0 10000000 10 1167 333
40 0 0 10000000 10 356 1044
41 0 0 10000000 10 583 117
42 0 0 10000000 10 1588 1112
43 0 0 10000000 10 619 681
44 0 0 10000000 10 86 1014
45 0 0 10000000 10 800 800
46 0 0 10000000 10 256 744
47 0 0 10000000 10 410 90
48 0 0 10000000 10 1953 547
49 0 0 10000000 10 773 927
50 0 0 10000000 10 1050 750
51 0 0 10000000 10 661 339
DEPOT_SECTION
1 
-1
EOF
